c File: flat50_3_0.col
c
c SOURCE: Joseph Culberson (joe@cs.ualberta.ca)
c DESCRIPTION: Quasi-random coloring problem
c              generated with flatness = 0
c                             probability = 0.139
c                             known coloring = 3
c                             random seed = 1973
c              Creation Date:  Tue Jun  9 12:22:29 1998
c Maximum degree = 8 Minimum degree = 0
c p edge 50 115
c cnf created by edge2cnf
p cnf 150 545
-1 -2 0
-1 -3 0
-2 -3 0
1 2 3 0
-4 -5 0
-4 -6 0
-5 -6 0
4 5 6 0
-7 -8 0
-7 -9 0
-8 -9 0
7 8 9 0
-10 -11 0
-10 -12 0
-11 -12 0
10 11 12 0
-13 -14 0
-13 -15 0
-14 -15 0
13 14 15 0
-16 -17 0
-16 -18 0
-17 -18 0
16 17 18 0
-19 -20 0
-19 -21 0
-20 -21 0
19 20 21 0
-22 -23 0
-22 -24 0
-23 -24 0
22 23 24 0
-25 -26 0
-25 -27 0
-26 -27 0
25 26 27 0
-28 -29 0
-28 -30 0
-29 -30 0
28 29 30 0
-31 -32 0
-31 -33 0
-32 -33 0
31 32 33 0
-34 -35 0
-34 -36 0
-35 -36 0
34 35 36 0
-37 -38 0
-37 -39 0
-38 -39 0
37 38 39 0
-40 -41 0
-40 -42 0
-41 -42 0
40 41 42 0
-43 -44 0
-43 -45 0
-44 -45 0
43 44 45 0
-46 -47 0
-46 -48 0
-47 -48 0
46 47 48 0
-49 -50 0
-49 -51 0
-50 -51 0
49 50 51 0
-52 -53 0
-52 -54 0
-53 -54 0
52 53 54 0
-55 -56 0
-55 -57 0
-56 -57 0
55 56 57 0
-58 -59 0
-58 -60 0
-59 -60 0
58 59 60 0
-61 -62 0
-61 -63 0
-62 -63 0
61 62 63 0
-64 -65 0
-64 -66 0
-65 -66 0
64 65 66 0
-67 -68 0
-67 -69 0
-68 -69 0
67 68 69 0
-70 -71 0
-70 -72 0
-71 -72 0
70 71 72 0
-73 -74 0
-73 -75 0
-74 -75 0
73 74 75 0
-76 -77 0
-76 -78 0
-77 -78 0
76 77 78 0
-79 -80 0
-79 -81 0
-80 -81 0
79 80 81 0
-82 -83 0
-82 -84 0
-83 -84 0
82 83 84 0
-85 -86 0
-85 -87 0
-86 -87 0
85 86 87 0
-88 -89 0
-88 -90 0
-89 -90 0
88 89 90 0
-91 -92 0
-91 -93 0
-92 -93 0
91 92 93 0
-94 -95 0
-94 -96 0
-95 -96 0
94 95 96 0
-97 -98 0
-97 -99 0
-98 -99 0
97 98 99 0
-100 -101 0
-100 -102 0
-101 -102 0
100 101 102 0
-103 -104 0
-103 -105 0
-104 -105 0
103 104 105 0
-106 -107 0
-106 -108 0
-107 -108 0
106 107 108 0
-109 -110 0
-109 -111 0
-110 -111 0
109 110 111 0
-112 -113 0
-112 -114 0
-113 -114 0
112 113 114 0
-115 -116 0
-115 -117 0
-116 -117 0
115 116 117 0
-118 -119 0
-118 -120 0
-119 -120 0
118 119 120 0
-121 -122 0
-121 -123 0
-122 -123 0
121 122 123 0
-124 -125 0
-124 -126 0
-125 -126 0
124 125 126 0
-127 -128 0
-127 -129 0
-128 -129 0
127 128 129 0
-130 -131 0
-130 -132 0
-131 -132 0
130 131 132 0
-133 -134 0
-133 -135 0
-134 -135 0
133 134 135 0
-136 -137 0
-136 -138 0
-137 -138 0
136 137 138 0
-139 -140 0
-139 -141 0
-140 -141 0
139 140 141 0
-142 -143 0
-142 -144 0
-143 -144 0
142 143 144 0
-145 -146 0
-145 -147 0
-146 -147 0
145 146 147 0
-148 -149 0
-148 -150 0
-149 -150 0
148 149 150 0
-70 -1 0
-71 -2 0
-72 -3 0
-73 -1 0
-74 -2 0
-75 -3 0
-79 -1 0
-80 -2 0
-81 -3 0
-115 -1 0
-116 -2 0
-117 -3 0
-139 -4 0
-140 -5 0
-141 -6 0
-67 -7 0
-68 -8 0
-69 -9 0
-130 -7 0
-131 -8 0
-132 -9 0
-97 -10 0
-98 -11 0
-99 -12 0
-109 -10 0
-110 -11 0
-111 -12 0
-130 -10 0
-131 -11 0
-132 -12 0
-145 -10 0
-146 -11 0
-147 -12 0
-67 -13 0
-68 -14 0
-69 -15 0
-82 -13 0
-83 -14 0
-84 -15 0
-91 -13 0
-92 -14 0
-93 -15 0
-100 -13 0
-101 -14 0
-102 -15 0
-124 -13 0
-125 -14 0
-126 -15 0
-142 -13 0
-143 -14 0
-144 -15 0
-52 -16 0
-53 -17 0
-54 -18 0
-58 -16 0
-59 -17 0
-60 -18 0
-64 -16 0
-65 -17 0
-66 -18 0
-73 -16 0
-74 -17 0
-75 -18 0
-118 -16 0
-119 -17 0
-120 -18 0
-133 -16 0
-134 -17 0
-135 -18 0
-145 -16 0
-146 -17 0
-147 -18 0
-76 -19 0
-77 -20 0
-78 -21 0
-82 -19 0
-83 -20 0
-84 -21 0
-112 -19 0
-113 -20 0
-114 -21 0
-136 -19 0
-137 -20 0
-138 -21 0
-139 -19 0
-140 -20 0
-141 -21 0
-64 -22 0
-65 -23 0
-66 -24 0
-70 -22 0
-71 -23 0
-72 -24 0
-73 -22 0
-74 -23 0
-75 -24 0
-94 -22 0
-95 -23 0
-96 -24 0
-124 -22 0
-125 -23 0
-126 -24 0
-148 -22 0
-149 -23 0
-150 -24 0
-58 -25 0
-59 -26 0
-60 -27 0
-100 -25 0
-101 -26 0
-102 -27 0
-118 -25 0
-119 -26 0
-120 -27 0
-148 -25 0
-149 -26 0
-150 -27 0
-55 -28 0
-56 -29 0
-57 -30 0
-58 -28 0
-59 -29 0
-60 -30 0
-85 -28 0
-86 -29 0
-87 -30 0
-91 -28 0
-92 -29 0
-93 -30 0
-118 -28 0
-119 -29 0
-120 -30 0
-121 -28 0
-122 -29 0
-123 -30 0
-133 -28 0
-134 -29 0
-135 -30 0
-148 -28 0
-149 -29 0
-150 -30 0
-70 -31 0
-71 -32 0
-72 -33 0
-79 -31 0
-80 -32 0
-81 -33 0
-82 -31 0
-83 -32 0
-84 -33 0
-100 -31 0
-101 -32 0
-102 -33 0
-127 -34 0
-128 -35 0
-129 -36 0
-133 -34 0
-134 -35 0
-135 -36 0
-70 -37 0
-71 -38 0
-72 -39 0
-76 -37 0
-77 -38 0
-78 -39 0
-79 -37 0
-80 -38 0
-81 -39 0
-121 -37 0
-122 -38 0
-123 -39 0
-124 -37 0
-125 -38 0
-126 -39 0
-127 -37 0
-128 -38 0
-129 -39 0
-133 -37 0
-134 -38 0
-135 -39 0
-58 -40 0
-59 -41 0
-60 -42 0
-82 -40 0
-83 -41 0
-84 -42 0
-115 -40 0
-116 -41 0
-117 -42 0
-127 -40 0
-128 -41 0
-129 -42 0
-130 -40 0
-131 -41 0
-132 -42 0
-97 -43 0
-98 -44 0
-99 -45 0
-130 -43 0
-131 -44 0
-132 -45 0
-136 -43 0
-137 -44 0
-138 -45 0
-142 -43 0
-143 -44 0
-144 -45 0
-76 -46 0
-77 -47 0
-78 -48 0
-97 -46 0
-98 -47 0
-99 -48 0
-100 -46 0
-101 -47 0
-102 -48 0
-118 -46 0
-119 -47 0
-120 -48 0
-145 -46 0
-146 -47 0
-147 -48 0
-67 -49 0
-68 -50 0
-69 -51 0
-79 -49 0
-80 -50 0
-81 -51 0
-124 -49 0
-125 -50 0
-126 -51 0
-145 -49 0
-146 -50 0
-147 -51 0
-112 -52 0
-113 -53 0
-114 -54 0
-121 -52 0
-122 -53 0
-123 -54 0
-136 -52 0
-137 -53 0
-138 -54 0
-103 -55 0
-104 -56 0
-105 -57 0
-109 -55 0
-110 -56 0
-111 -57 0
-136 -55 0
-137 -56 0
-138 -57 0
-124 -58 0
-125 -59 0
-126 -60 0
-139 -58 0
-140 -59 0
-141 -60 0
-121 -61 0
-122 -62 0
-123 -63 0
-139 -61 0
-140 -62 0
-141 -63 0
-103 -64 0
-104 -65 0
-105 -66 0
-109 -64 0
-110 -65 0
-111 -66 0
-139 -64 0
-140 -65 0
-141 -66 0
-115 -67 0
-116 -68 0
-117 -69 0
-112 -73 0
-113 -74 0
-114 -75 0
-103 -76 0
-104 -77 0
-105 -78 0
-109 -76 0
-110 -77 0
-111 -78 0
-118 -76 0
-119 -77 0
-120 -78 0
-139 -76 0
-140 -77 0
-141 -78 0
-115 -79 0
-116 -80 0
-117 -81 0
-133 -79 0
-134 -80 0
-135 -81 0
-124 -82 0
-125 -83 0
-126 -84 0
-142 -82 0
-143 -83 0
-144 -84 0
-148 -82 0
-149 -83 0
-150 -84 0
-124 -85 0
-125 -86 0
-126 -87 0
-127 -85 0
-128 -86 0
-129 -87 0
-145 -85 0
-146 -86 0
-147 -87 0
-103 -88 0
-104 -89 0
-105 -90 0
-109 -88 0
-110 -89 0
-111 -90 0
-136 -88 0
-137 -89 0
-138 -90 0
-142 -88 0
-143 -89 0
-144 -90 0
-124 -91 0
-125 -92 0
-126 -93 0
-142 -94 0
-143 -95 0
-144 -96 0
-118 -97 0
-119 -98 0
-120 -99 0
-148 -97 0
-149 -98 0
-150 -99 0
-118 -100 0
-119 -101 0
-120 -102 0
-145 -100 0
-146 -101 0
-147 -102 0
